NAME          COPTPROB
OBJSENSE
  MIN
ROWS
 N  __OBJ___
 L  C84     
 L  C89     
 L  C165    
 L  C205    
 L  C233    
 L  C370    
 L  C392    
 L  C400    
 L  C458    
 L  C551    
 L  C569    
COLUMNS
    MARKER    'MARKER'                 'INTORG'
    x36       __OBJ___  -1
    x36       C400      1
    x36       C551      1
    x108      __OBJ___  -1
    x108      C205      1
    x108      C569      1
    x123      __OBJ___  -1
    x123      C233      1
    x123      C370      1
    x146      __OBJ___  -1
    x146      C89       1
    x146      C370      1
    x152      __OBJ___  -1
    x152      C165      1
    x152      C392      1
    x171      __OBJ___  -1
    x171      C84       1
    x171      C551      1
    x182      __OBJ___  -1
    x182      C392      1
    x182      C458      1
    x190      __OBJ___  -1
    x190      C205      1
    x190      C233      1
    x206      __OBJ___  -1
    x206      C84       1
    x206      C165      1
    x226      __OBJ___  -1
    x226      C400      1
    x226      C569      1
    x281      __OBJ___  -1
    x281      C89       1
    x281      C458      1
    MARKER    'MARKER'                 'INTEND'
RHS
    RHS       __OBJ___  164
    RHS       C84       1
    RHS       C89       1
    RHS       C165      1
    RHS       C205      1
    RHS       C233      1
    RHS       C370      1
    RHS       C392      1
    RHS       C400      1
    RHS       C458      1
    RHS       C551      1
    RHS       C569      1
BOUNDS
 UP BOUND     x36       1
 UP BOUND     x108      1
 UP BOUND     x123      1
 UP BOUND     x146      1
 UP BOUND     x152      1
 UP BOUND     x171      1
 UP BOUND     x182      1
 UP BOUND     x190      1
 UP BOUND     x206      1
 UP BOUND     x226      1
 UP BOUND     x281      1
ENDATA
